Minimize
	value: tt

Subject to
tt + 1000 s_1_1 > 0.0
tt - t_1_1 - 1000.307953 s_1_1  + 0.307953 s_1_7  > -998.646600
tt + 1000 s_2_1 > 0.0
tt - t_2_1 - 1000.336420 s_2_1  + 0.336420 s_2_7  > -993.386341
tt + 1000 s_1_2 > 0.0
tt - t_1_2 - 1000.307953 s_1_2  + 0.307953 s_1_8  > -998.418667
tt + 1000 s_2_2 > 0.0
tt - t_2_2 - 1000.336420 s_2_2  + 0.336420 s_2_8  > -992.713140
tt + 1000 s_1_3 > 0.0
tt - t_1_3 - 1000.307953 s_1_3  + 0.307953 s_1_8  > -998.355789
tt + 1000 s_2_3 > 0.0
tt - t_2_3 - 1000.336420 s_2_3  + 0.336420 s_2_8  > -989.197835
tt + 1000 s_1_4 > 0.0
tt - t_1_4 - 1000.548635 s_1_4  + 0.307953 s_1_8  + 0.240682 s_1_3  > -999.168489
tt + 1000 s_2_4 > 0.0
tt - t_2_4 - 1000.588892 s_2_4  + 0.336420 s_2_8  + 0.252472 s_2_3  > -994.309167
tt + 1000 s_1_5 > 0.0
tt - t_1_5 - 1000.615905 s_1_5  + 0.307953 s_1_7  + 0.307953 s_1_8  > -998.627444
tt + 1000 s_2_5 > 0.0
tt - t_2_5 - 1000.672839 s_2_5  + 0.336420 s_2_7  + 0.336420 s_2_8  > -992.453081
tt + 1000 s_1_6 > 0.0
tt - t_1_6 - 1001.203412 s_1_6  + 0.240682 s_1_2  + 0.240682 s_1_3  + 0.240682 s_1_1  + 0.240682 s_1_5  + 0.240682 s_1_4  > -999.790100
tt + 1000 s_2_6 > 0.0
tt - t_2_6 - 1001.262361 s_2_6  + 0.252472 s_2_2  + 0.252472 s_2_3  + 0.252472 s_2_1  + 0.252472 s_2_5  + 0.252472 s_2_4  > -995.883700
tt + 1000 s_1_7 > 0.0
tt - t_1_7 - 1000.000000 s_1_7  > -997.273689
tt + 1000 s_2_7 > 0.0
tt - t_2_7 - 1000.000000 s_2_7  > -994.562789
tt + 1000 s_1_8 > 0.0
tt - t_1_8 - 1000.000000 s_1_8  > -997.002200
tt + 1000 s_2_8 > 0.0
tt - t_2_8 - 1000.000000 s_2_8  > -993.875800
s_1_1 + s_2_1 = 1
s_1_2 + s_2_2 = 1
s_1_3 + s_2_3 = 1
s_1_4 + s_2_4 = 1
s_1_5 + s_2_5 = 1
s_1_6 + s_2_6 = 1
s_1_7 + s_2_7 = 1
s_1_8 + s_2_8 = 1
s_1_1 + s_1_2 + 1000 r_1_1_2 >= 2
- s_1_1 - s_1_2 - 1000 r_1_1_2 >= -1001
t_1_1 - t_1_2 - 1000.000000 u_1_1_2 - 0.307953 s_1_2  + 0.307953 s_1_8  + 2000.000000 r_1_1_2 > -998.418667
s_2_1 + s_2_2 + 1000 r_2_1_2 >= 2
- s_2_1 - s_2_2 - 1000 r_2_1_2 >= -1001
t_2_1 - t_2_2 - 1000.000000 u_2_1_2 - 0.336420 s_2_2  + 0.336420 s_2_8  + 2000.000000 r_2_1_2 > -992.713140
s_1_1 + s_1_3 + 1000 r_1_1_3 >= 2
- s_1_1 - s_1_3 - 1000 r_1_1_3 >= -1001
t_1_1 - t_1_3 - 1000.000000 u_1_1_3 - 0.307953 s_1_3  + 0.307953 s_1_8  + 2000.000000 r_1_1_3 > -998.355789
s_2_1 + s_2_3 + 1000 r_2_1_3 >= 2
- s_2_1 - s_2_3 - 1000 r_2_1_3 >= -1001
t_2_1 - t_2_3 - 1000.000000 u_2_1_3 - 0.336420 s_2_3  + 0.336420 s_2_8  + 2000.000000 r_2_1_3 > -989.197835
s_1_1 + s_1_4 + 1000 r_1_1_4 >= 2
- s_1_1 - s_1_4 - 1000 r_1_1_4 >= -1001
t_1_1 - t_1_4 - 1000.000000 u_1_1_4 - 0.548635 s_1_4  + 0.307953 s_1_8  + 0.240682 s_1_3  + 2000.000000 r_1_1_4 > -999.168489
s_2_1 + s_2_4 + 1000 r_2_1_4 >= 2
- s_2_1 - s_2_4 - 1000 r_2_1_4 >= -1001
t_2_1 - t_2_4 - 1000.000000 u_2_1_4 - 0.588892 s_2_4  + 0.336420 s_2_8  + 0.252472 s_2_3  + 2000.000000 r_2_1_4 > -994.309167
s_1_1 + s_1_5 + 1000 r_1_1_5 >= 2
- s_1_1 - s_1_5 - 1000 r_1_1_5 >= -1001
t_1_1 - t_1_5 - 1000.000000 u_1_1_5 - 0.615905 s_1_5  + 0.307953 s_1_7  + 0.307953 s_1_8  + 2000.000000 r_1_1_5 > -998.627444
s_2_1 + s_2_5 + 1000 r_2_1_5 >= 2
- s_2_1 - s_2_5 - 1000 r_2_1_5 >= -1001
t_2_1 - t_2_5 - 1000.000000 u_2_1_5 - 0.672839 s_2_5  + 0.336420 s_2_7  + 0.336420 s_2_8  + 2000.000000 r_2_1_5 > -992.453081
t_1_6 - t_1_1 - 1000.307953 s_1_1  + 0.307953 s_1_7  > -998.646600
t_1_6 - t_2_1 - 1000.336420 s_2_1  + 0.336420 s_2_7  > -993.386341
t_2_6 - t_1_1 - 1000.307953 s_1_1  + 0.307953 s_1_7  > -998.646600
t_2_6 - t_2_1 - 1000.336420 s_2_1  + 0.336420 s_2_7  > -993.386341
t_1_1 - t_1_7 - 1000.000000 s_1_7  > -997.273689
t_1_1 - t_2_7 - 1000.000000 s_2_7  > -994.562789
t_2_1 - t_1_7 - 1000.000000 s_1_7  > -997.273689
t_2_1 - t_2_7 - 1000.000000 s_2_7  > -994.562789
s_1_1 + s_1_8 + 1000 r_1_1_8 >= 2
- s_1_1 - s_1_8 - 1000 r_1_1_8 >= -1001
t_1_1 - t_1_8 - 1000.000000 u_1_1_8 - 0.000000 s_1_8  + 2000.000000 r_1_1_8 > -997.002200
s_2_1 + s_2_8 + 1000 r_2_1_8 >= 2
- s_2_1 - s_2_8 - 1000 r_2_1_8 >= -1001
t_2_1 - t_2_8 - 1000.000000 u_2_1_8 - 0.000000 s_2_8  + 2000.000000 r_2_1_8 > -993.875800
s_1_2 + s_1_1 + 1000 r_1_1_2 >= 2
- s_1_2 - s_1_1 - 1000 r_1_1_2 >= -1001
t_1_2 - t_1_1 + 1000.000000 u_1_1_2 - 0.307953 s_1_1  + 0.307953 s_1_7  + 2000.000000 r_1_1_2 > 1.353400
s_2_2 + s_2_1 + 1000 r_2_1_2 >= 2
- s_2_2 - s_2_1 - 1000 r_2_1_2 >= -1001
t_2_2 - t_2_1 + 1000.000000 u_2_1_2 - 0.336420 s_2_1  + 0.336420 s_2_7  + 2000.000000 r_2_1_2 > 6.613659
s_1_2 + s_1_3 + 1000 r_1_2_3 >= 2
- s_1_2 - s_1_3 - 1000 r_1_2_3 >= -1001
t_1_2 - t_1_3 - 1000.000000 u_1_2_3 - 0.307953 s_1_3  + 0.307953 s_1_8  + 2000.000000 r_1_2_3 > -998.355789
s_2_2 + s_2_3 + 1000 r_2_2_3 >= 2
- s_2_2 - s_2_3 - 1000 r_2_2_3 >= -1001
t_2_2 - t_2_3 - 1000.000000 u_2_2_3 - 0.336420 s_2_3  + 0.336420 s_2_8  + 2000.000000 r_2_2_3 > -989.197835
s_1_2 + s_1_4 + 1000 r_1_2_4 >= 2
- s_1_2 - s_1_4 - 1000 r_1_2_4 >= -1001
t_1_2 - t_1_4 - 1000.000000 u_1_2_4 - 0.548635 s_1_4  + 0.307953 s_1_8  + 0.240682 s_1_3  + 2000.000000 r_1_2_4 > -999.168489
s_2_2 + s_2_4 + 1000 r_2_2_4 >= 2
- s_2_2 - s_2_4 - 1000 r_2_2_4 >= -1001
t_2_2 - t_2_4 - 1000.000000 u_2_2_4 - 0.588892 s_2_4  + 0.336420 s_2_8  + 0.252472 s_2_3  + 2000.000000 r_2_2_4 > -994.309167
s_1_2 + s_1_5 + 1000 r_1_2_5 >= 2
- s_1_2 - s_1_5 - 1000 r_1_2_5 >= -1001
t_1_2 - t_1_5 - 1000.000000 u_1_2_5 - 0.615905 s_1_5  + 0.307953 s_1_7  + 0.307953 s_1_8  + 2000.000000 r_1_2_5 > -998.627444
s_2_2 + s_2_5 + 1000 r_2_2_5 >= 2
- s_2_2 - s_2_5 - 1000 r_2_2_5 >= -1001
t_2_2 - t_2_5 - 1000.000000 u_2_2_5 - 0.672839 s_2_5  + 0.336420 s_2_7  + 0.336420 s_2_8  + 2000.000000 r_2_2_5 > -992.453081
t_1_6 - t_1_2 - 1000.307953 s_1_2  + 0.307953 s_1_8  > -998.418667
t_1_6 - t_2_2 - 1000.336420 s_2_2  + 0.336420 s_2_8  > -992.713140
t_2_6 - t_1_2 - 1000.307953 s_1_2  + 0.307953 s_1_8  > -998.418667
t_2_6 - t_2_2 - 1000.336420 s_2_2  + 0.336420 s_2_8  > -992.713140
s_1_2 + s_1_7 + 1000 r_1_2_7 >= 2
- s_1_2 - s_1_7 - 1000 r_1_2_7 >= -1001
t_1_2 - t_1_7 - 1000.000000 u_1_2_7 - 0.000000 s_1_7  + 2000.000000 r_1_2_7 > -997.273689
s_2_2 + s_2_7 + 1000 r_2_2_7 >= 2
- s_2_2 - s_2_7 - 1000 r_2_2_7 >= -1001
t_2_2 - t_2_7 - 1000.000000 u_2_2_7 - 0.000000 s_2_7  + 2000.000000 r_2_2_7 > -994.562789
t_1_2 - t_1_8 - 1000.000000 s_1_8  > -997.002200
t_1_2 - t_2_8 - 1000.000000 s_2_8  > -993.875800
t_2_2 - t_1_8 - 1000.000000 s_1_8  > -997.002200
t_2_2 - t_2_8 - 1000.000000 s_2_8  > -993.875800
s_1_3 + s_1_1 + 1000 r_1_1_3 >= 2
- s_1_3 - s_1_1 - 1000 r_1_1_3 >= -1001
t_1_3 - t_1_1 + 1000.000000 u_1_1_3 - 0.307953 s_1_1  + 0.307953 s_1_7  + 2000.000000 r_1_1_3 > 1.353400
s_2_3 + s_2_1 + 1000 r_2_1_3 >= 2
- s_2_3 - s_2_1 - 1000 r_2_1_3 >= -1001
t_2_3 - t_2_1 + 1000.000000 u_2_1_3 - 0.336420 s_2_1  + 0.336420 s_2_7  + 2000.000000 r_2_1_3 > 6.613659
s_1_3 + s_1_2 + 1000 r_1_2_3 >= 2
- s_1_3 - s_1_2 - 1000 r_1_2_3 >= -1001
t_1_3 - t_1_2 + 1000.000000 u_1_2_3 - 0.307953 s_1_2  + 0.307953 s_1_8  + 2000.000000 r_1_2_3 > 1.581333
s_2_3 + s_2_2 + 1000 r_2_2_3 >= 2
- s_2_3 - s_2_2 - 1000 r_2_2_3 >= -1001
t_2_3 - t_2_2 + 1000.000000 u_2_2_3 - 0.336420 s_2_2  + 0.336420 s_2_8  + 2000.000000 r_2_2_3 > 7.286860
t_1_4 - t_1_3 - 1000.307953 s_1_3  + 0.307953 s_1_8  > -998.355789
t_1_4 - t_2_3 - 1000.336420 s_2_3  + 0.336420 s_2_8  > -989.197835
t_2_4 - t_1_3 - 1000.307953 s_1_3  + 0.307953 s_1_8  > -998.355789
t_2_4 - t_2_3 - 1000.336420 s_2_3  + 0.336420 s_2_8  > -989.197835
s_1_3 + s_1_5 + 1000 r_1_3_5 >= 2
- s_1_3 - s_1_5 - 1000 r_1_3_5 >= -1001
t_1_3 - t_1_5 - 1000.000000 u_1_3_5 - 0.615905 s_1_5  + 0.307953 s_1_7  + 0.307953 s_1_8  + 2000.000000 r_1_3_5 > -998.627444
s_2_3 + s_2_5 + 1000 r_2_3_5 >= 2
- s_2_3 - s_2_5 - 1000 r_2_3_5 >= -1001
t_2_3 - t_2_5 - 1000.000000 u_2_3_5 - 0.672839 s_2_5  + 0.336420 s_2_7  + 0.336420 s_2_8  + 2000.000000 r_2_3_5 > -992.453081
t_1_6 - t_1_3 - 1000.307953 s_1_3  + 0.307953 s_1_8  > -998.355789
t_1_6 - t_2_3 - 1000.336420 s_2_3  + 0.336420 s_2_8  > -989.197835
t_2_6 - t_1_3 - 1000.307953 s_1_3  + 0.307953 s_1_8  > -998.355789
t_2_6 - t_2_3 - 1000.336420 s_2_3  + 0.336420 s_2_8  > -989.197835
s_1_3 + s_1_7 + 1000 r_1_3_7 >= 2
- s_1_3 - s_1_7 - 1000 r_1_3_7 >= -1001
t_1_3 - t_1_7 - 1000.000000 u_1_3_7 - 0.000000 s_1_7  + 2000.000000 r_1_3_7 > -997.273689
s_2_3 + s_2_7 + 1000 r_2_3_7 >= 2
- s_2_3 - s_2_7 - 1000 r_2_3_7 >= -1001
t_2_3 - t_2_7 - 1000.000000 u_2_3_7 - 0.000000 s_2_7  + 2000.000000 r_2_3_7 > -994.562789
t_1_3 - t_1_8 - 1000.000000 s_1_8  > -997.002200
t_1_3 - t_2_8 - 1000.000000 s_2_8  > -993.875800
t_2_3 - t_1_8 - 1000.000000 s_1_8  > -997.002200
t_2_3 - t_2_8 - 1000.000000 s_2_8  > -993.875800
s_1_4 + s_1_1 + 1000 r_1_1_4 >= 2
- s_1_4 - s_1_1 - 1000 r_1_1_4 >= -1001
t_1_4 - t_1_1 + 1000.000000 u_1_1_4 - 0.307953 s_1_1  + 0.307953 s_1_7  + 2000.000000 r_1_1_4 > 1.353400
s_2_4 + s_2_1 + 1000 r_2_1_4 >= 2
- s_2_4 - s_2_1 - 1000 r_2_1_4 >= -1001
t_2_4 - t_2_1 + 1000.000000 u_2_1_4 - 0.336420 s_2_1  + 0.336420 s_2_7  + 2000.000000 r_2_1_4 > 6.613659
s_1_4 + s_1_2 + 1000 r_1_2_4 >= 2
- s_1_4 - s_1_2 - 1000 r_1_2_4 >= -1001
t_1_4 - t_1_2 + 1000.000000 u_1_2_4 - 0.307953 s_1_2  + 0.307953 s_1_8  + 2000.000000 r_1_2_4 > 1.581333
s_2_4 + s_2_2 + 1000 r_2_2_4 >= 2
- s_2_4 - s_2_2 - 1000 r_2_2_4 >= -1001
t_2_4 - t_2_2 + 1000.000000 u_2_2_4 - 0.336420 s_2_2  + 0.336420 s_2_8  + 2000.000000 r_2_2_4 > 7.286860
s_1_4 + s_1_5 + 1000 r_1_4_5 >= 2
- s_1_4 - s_1_5 - 1000 r_1_4_5 >= -1001
t_1_4 - t_1_5 - 1000.000000 u_1_4_5 - 0.615905 s_1_5  + 0.307953 s_1_7  + 0.307953 s_1_8  + 2000.000000 r_1_4_5 > -998.627444
s_2_4 + s_2_5 + 1000 r_2_4_5 >= 2
- s_2_4 - s_2_5 - 1000 r_2_4_5 >= -1001
t_2_4 - t_2_5 - 1000.000000 u_2_4_5 - 0.672839 s_2_5  + 0.336420 s_2_7  + 0.336420 s_2_8  + 2000.000000 r_2_4_5 > -992.453081
t_1_6 - t_1_4 - 1000.548635 s_1_4  + 0.307953 s_1_8  + 0.240682 s_1_3  > -999.168489
t_1_6 - t_2_4 - 1000.588892 s_2_4  + 0.336420 s_2_8  + 0.252472 s_2_3  > -994.309167
t_2_6 - t_1_4 - 1000.548635 s_1_4  + 0.307953 s_1_8  + 0.240682 s_1_3  > -999.168489
t_2_6 - t_2_4 - 1000.588892 s_2_4  + 0.336420 s_2_8  + 0.252472 s_2_3  > -994.309167
s_1_4 + s_1_7 + 1000 r_1_4_7 >= 2
- s_1_4 - s_1_7 - 1000 r_1_4_7 >= -1001
t_1_4 - t_1_7 - 1000.000000 u_1_4_7 - 0.000000 s_1_7  + 2000.000000 r_1_4_7 > -997.273689
s_2_4 + s_2_7 + 1000 r_2_4_7 >= 2
- s_2_4 - s_2_7 - 1000 r_2_4_7 >= -1001
t_2_4 - t_2_7 - 1000.000000 u_2_4_7 - 0.000000 s_2_7  + 2000.000000 r_2_4_7 > -994.562789
t_1_4 - t_1_8 - 1000.000000 s_1_8  > -997.002200
t_1_4 - t_2_8 - 1000.000000 s_2_8  > -993.875800
t_2_4 - t_1_8 - 1000.000000 s_1_8  > -997.002200
t_2_4 - t_2_8 - 1000.000000 s_2_8  > -993.875800
s_1_5 + s_1_1 + 1000 r_1_1_5 >= 2
- s_1_5 - s_1_1 - 1000 r_1_1_5 >= -1001
t_1_5 - t_1_1 + 1000.000000 u_1_1_5 - 0.307953 s_1_1  + 0.307953 s_1_7  + 2000.000000 r_1_1_5 > 1.353400
s_2_5 + s_2_1 + 1000 r_2_1_5 >= 2
- s_2_5 - s_2_1 - 1000 r_2_1_5 >= -1001
t_2_5 - t_2_1 + 1000.000000 u_2_1_5 - 0.336420 s_2_1  + 0.336420 s_2_7  + 2000.000000 r_2_1_5 > 6.613659
s_1_5 + s_1_2 + 1000 r_1_2_5 >= 2
- s_1_5 - s_1_2 - 1000 r_1_2_5 >= -1001
t_1_5 - t_1_2 + 1000.000000 u_1_2_5 - 0.307953 s_1_2  + 0.307953 s_1_8  + 2000.000000 r_1_2_5 > 1.581333
s_2_5 + s_2_2 + 1000 r_2_2_5 >= 2
- s_2_5 - s_2_2 - 1000 r_2_2_5 >= -1001
t_2_5 - t_2_2 + 1000.000000 u_2_2_5 - 0.336420 s_2_2  + 0.336420 s_2_8  + 2000.000000 r_2_2_5 > 7.286860
s_1_5 + s_1_3 + 1000 r_1_3_5 >= 2
- s_1_5 - s_1_3 - 1000 r_1_3_5 >= -1001
t_1_5 - t_1_3 + 1000.000000 u_1_3_5 - 0.307953 s_1_3  + 0.307953 s_1_8  + 2000.000000 r_1_3_5 > 1.644211
s_2_5 + s_2_3 + 1000 r_2_3_5 >= 2
- s_2_5 - s_2_3 - 1000 r_2_3_5 >= -1001
t_2_5 - t_2_3 + 1000.000000 u_2_3_5 - 0.336420 s_2_3  + 0.336420 s_2_8  + 2000.000000 r_2_3_5 > 10.802165
s_1_5 + s_1_4 + 1000 r_1_4_5 >= 2
- s_1_5 - s_1_4 - 1000 r_1_4_5 >= -1001
t_1_5 - t_1_4 + 1000.000000 u_1_4_5 - 0.548635 s_1_4  + 0.307953 s_1_8  + 0.240682 s_1_3  + 2000.000000 r_1_4_5 > 0.831511
s_2_5 + s_2_4 + 1000 r_2_4_5 >= 2
- s_2_5 - s_2_4 - 1000 r_2_4_5 >= -1001
t_2_5 - t_2_4 + 1000.000000 u_2_4_5 - 0.588892 s_2_4  + 0.336420 s_2_8  + 0.252472 s_2_3  + 2000.000000 r_2_4_5 > 5.690833
t_1_6 - t_1_5 - 1000.615905 s_1_5  + 0.307953 s_1_7  + 0.307953 s_1_8  > -998.627444
t_1_6 - t_2_5 - 1000.672839 s_2_5  + 0.336420 s_2_7  + 0.336420 s_2_8  > -992.453081
t_2_6 - t_1_5 - 1000.615905 s_1_5  + 0.307953 s_1_7  + 0.307953 s_1_8  > -998.627444
t_2_6 - t_2_5 - 1000.672839 s_2_5  + 0.336420 s_2_7  + 0.336420 s_2_8  > -992.453081
t_1_5 - t_1_7 - 1000.000000 s_1_7  > -997.273689
t_1_5 - t_2_7 - 1000.000000 s_2_7  > -994.562789
t_2_5 - t_1_7 - 1000.000000 s_1_7  > -997.273689
t_2_5 - t_2_7 - 1000.000000 s_2_7  > -994.562789
t_1_5 - t_1_8 - 1000.000000 s_1_8  > -997.002200
t_1_5 - t_2_8 - 1000.000000 s_2_8  > -993.875800
t_2_5 - t_1_8 - 1000.000000 s_1_8  > -997.002200
t_2_5 - t_2_8 - 1000.000000 s_2_8  > -993.875800
s_1_7 + s_1_2 + 1000 r_1_2_7 >= 2
- s_1_7 - s_1_2 - 1000 r_1_2_7 >= -1001
t_1_7 - t_1_2 + 1000.000000 u_1_2_7 - 0.307953 s_1_2  + 0.307953 s_1_8  + 2000.000000 r_1_2_7 > 1.581333
s_2_7 + s_2_2 + 1000 r_2_2_7 >= 2
- s_2_7 - s_2_2 - 1000 r_2_2_7 >= -1001
t_2_7 - t_2_2 + 1000.000000 u_2_2_7 - 0.336420 s_2_2  + 0.336420 s_2_8  + 2000.000000 r_2_2_7 > 7.286860
s_1_7 + s_1_3 + 1000 r_1_3_7 >= 2
- s_1_7 - s_1_3 - 1000 r_1_3_7 >= -1001
t_1_7 - t_1_3 + 1000.000000 u_1_3_7 - 0.307953 s_1_3  + 0.307953 s_1_8  + 2000.000000 r_1_3_7 > 1.644211
s_2_7 + s_2_3 + 1000 r_2_3_7 >= 2
- s_2_7 - s_2_3 - 1000 r_2_3_7 >= -1001
t_2_7 - t_2_3 + 1000.000000 u_2_3_7 - 0.336420 s_2_3  + 0.336420 s_2_8  + 2000.000000 r_2_3_7 > 10.802165
s_1_7 + s_1_4 + 1000 r_1_4_7 >= 2
- s_1_7 - s_1_4 - 1000 r_1_4_7 >= -1001
t_1_7 - t_1_4 + 1000.000000 u_1_4_7 - 0.548635 s_1_4  + 0.307953 s_1_8  + 0.240682 s_1_3  + 2000.000000 r_1_4_7 > 0.831511
s_2_7 + s_2_4 + 1000 r_2_4_7 >= 2
- s_2_7 - s_2_4 - 1000 r_2_4_7 >= -1001
t_2_7 - t_2_4 + 1000.000000 u_2_4_7 - 0.588892 s_2_4  + 0.336420 s_2_8  + 0.252472 s_2_3  + 2000.000000 r_2_4_7 > 5.690833
s_1_7 + s_1_8 + 1000 r_1_7_8 >= 2
- s_1_7 - s_1_8 - 1000 r_1_7_8 >= -1001
t_1_7 - t_1_8 - 1000.000000 u_1_7_8 - 0.000000 s_1_8  + 2000.000000 r_1_7_8 > -997.002200
s_2_7 + s_2_8 + 1000 r_2_7_8 >= 2
- s_2_7 - s_2_8 - 1000 r_2_7_8 >= -1001
t_2_7 - t_2_8 - 1000.000000 u_2_7_8 - 0.000000 s_2_8  + 2000.000000 r_2_7_8 > -993.875800
s_1_8 + s_1_1 + 1000 r_1_1_8 >= 2
- s_1_8 - s_1_1 - 1000 r_1_1_8 >= -1001
t_1_8 - t_1_1 + 1000.000000 u_1_1_8 - 0.307953 s_1_1  + 0.307953 s_1_7  + 2000.000000 r_1_1_8 > 1.353400
s_2_8 + s_2_1 + 1000 r_2_1_8 >= 2
- s_2_8 - s_2_1 - 1000 r_2_1_8 >= -1001
t_2_8 - t_2_1 + 1000.000000 u_2_1_8 - 0.336420 s_2_1  + 0.336420 s_2_7  + 2000.000000 r_2_1_8 > 6.613659
s_1_8 + s_1_7 + 1000 r_1_7_8 >= 2
- s_1_8 - s_1_7 - 1000 r_1_7_8 >= -1001
t_1_8 - t_1_7 + 1000.000000 u_1_7_8 - 0.000000 s_1_7  + 2000.000000 r_1_7_8 > 2.726311
s_2_8 + s_2_7 + 1000 r_2_7_8 >= 2
- s_2_8 - s_2_7 - 1000 r_2_7_8 >= -1001
t_2_8 - t_2_7 + 1000.000000 u_2_7_8 - 0.000000 s_2_7  + 2000.000000 r_2_7_8 > 5.437211
Binary
s_1_1
s_2_1
s_1_2
s_2_2
s_1_3
s_2_3
s_1_4
s_2_4
s_1_5
s_2_5
s_1_6
s_2_6
s_1_7
s_2_7
s_1_8
s_2_8
u_1_1_2
r_1_1_2
u_2_1_2
r_2_1_2
u_1_1_3
r_1_1_3
u_2_1_3
r_2_1_3
u_1_1_4
r_1_1_4
u_2_1_4
r_2_1_4
u_1_1_5
r_1_1_5
u_2_1_5
r_2_1_5
u_1_1_8
r_1_1_8
u_2_1_8
r_2_1_8
u_1_2_3
r_1_2_3
u_2_2_3
r_2_2_3
u_1_2_4
r_1_2_4
u_2_2_4
r_2_2_4
u_1_2_5
r_1_2_5
u_2_2_5
r_2_2_5
u_1_2_7
r_1_2_7
u_2_2_7
r_2_2_7
u_1_3_5
r_1_3_5
u_2_3_5
r_2_3_5
u_1_3_7
r_1_3_7
u_2_3_7
r_2_3_7
u_1_4_5
r_1_4_5
u_2_4_5
r_2_4_5
u_1_4_7
r_1_4_7
u_2_4_7
r_2_4_7
u_1_7_8
r_1_7_8
u_2_7_8
r_2_7_8

End
